c description: Random 3-CNF over 16 variables and 68 clauses
c generator: CNFgen (0.9.2)
c copyright: (C) 2012-2022 Massimo Lauria <massimo.lauria@uniroma1.it>
c url: https://massimolauria.net/cnfgen
c command line: cnfgen --output CNF_4.28/16_bit_68_674.cnf randkcnf 3 16 68
c
p cnf 16 68
-11 -14 16 0
8 -9 11 0
-7 -11 -16 0
-1 10 -14 0
-2 -6 -15 0
-3 5 13 0
3 -7 -13 0
2 5 -16 0
-2 12 -15 0
-3 -10 15 0
10 11 16 0
-1 -3 16 0
-1 2 5 0
12 13 16 0
-1 -7 12 0
-7 8 -15 0
9 11 14 0
-6 13 -15 0
-1 8 -12 0
-3 9 13 0
-9 -10 -15 0
2 6 -9 0
6 11 16 0
-7 11 -15 0
-1 -8 -16 0
8 -13 -14 0
-3 -5 -7 0
-2 10 -11 0
-3 4 -9 0
4 -6 -7 0
-4 -10 -15 0
-1 6 7 0
9 10 14 0
-5 -7 -11 0
9 -10 16 0
4 13 15 0
1 3 8 0
6 -11 -15 0
-7 -12 14 0
3 8 13 0
2 6 14 0
1 7 15 0
5 9 13 0
-7 -8 -16 0
9 13 -14 0
9 11 -15 0
-1 12 16 0
5 -14 -15 0
3 9 -10 0
-1 4 8 0
1 -6 7 0
-12 -13 -16 0
1 -2 -4 0
2 3 -8 0
-1 -11 -13 0
2 -9 -10 0
-2 -3 6 0
-4 6 -16 0
-4 5 -10 0
3 6 -14 0
1 -13 -15 0
-1 -8 13 0
-5 6 -11 0
-1 -9 13 0
-2 -9 15 0
-2 6 14 0
-7 10 11 0
9 13 14 0
